1000
750
525
525
525
525
524
524
523
523
522
522
522
521
521
521
521
521
521
519
519
519
519
518
518
518
518
518
518
516
516
515
515
515
514
513
513
513
512
511
511
511
511
510
510
510
510
509
509
509
508
508
507
507
506
506
506
506
505
505
505
504
504
503
503
502
502
502
502
501
500
500
500
500
499
499
498
498
498
498
498
498
497
497
496
496
496
496
496
495
495
495
494
494
494
493
493
493
492
492
492
492
491
491
491
490
490
490
490
490
490
490
489
489
489
488
488
488
488
488
487
487
487
486
486
486
485
485
485
485
485
484
484
484
483
483
483
483
483
482
482
482
481
480
480
479
479
479
477
477
477
477
477
476
476
474
474
474
473
473
472
472
472
470
470
470
470
469
469
468
468
468
468
467
467
467
467
466
466
466
465
464
463
463
463
463
462
462
462
461
461
461
459
458
457
456
456
455
455
455
454
454
453
453
452
452
452
450
450
450
449
449
447
447
447
447
446
446
446
445
444
444
444
443
443
443
443
442
442
442
442
442
442
441
441
441
441
440
440
440
440
440
439
439
438
438
438
437
437
437
437
436
435
435
434
434
433
433
433
433
431
431
430
429
429
428
428
428
428
428
428
427
427
427
427
427
426
426
425
425
425
425
424
423
421
421
421
420
420
419
419
419
419
418
418
416
416
416
415
414
414
414
413
413
413
413
412
412
412
411
411
411
410
409
408
408
408
408
406
406
404
404
404
403
403
402
402
402
402
402
402
401
401
400
399
399
399
397
397
397
397
396
396
395
395
394
394
394
394
393
392
392
392
391
391
391
390
389
389
389
389
389
389
387
387
387
384
384
384
384
383
382
381
381
381
380
380
379
379
378
378
377
377
376
375
375
374
374
374
374
374
374
373
373
373
373
373
372
372
371
371
371
371
371
371
371
370
369
369
369
368
368
368
368
368
367
367
366
366
365
365
365
365
365
364
363
363
363
363
363
363
362
361
361
361
360
360
360
360
359
359
358
357
357
357
357
357
356
356
356
355
355
355
355
355
355
355
353
353
352
352
352
352
352
352
351
351
350
350
349
349
349
348
347
347
347
346
346
345
345
345
344
344
344
344
343
343
343
342
342
342
342
341
339
339
339
339
337
336
336
335
335
335
334
333
332
332
332
332
331
331
330
329
329
329
329
328
328
328
327
327
327
326
326
325
325
324
324
324
324
323
323
323
322
322
322
322
322
322
322
322
321
321
320
320
320
320
320
319
318
318
318
318
318
317
317
317
316
316
316
316
315
314
314
314
314
314
313
313
313
312
311
311
311
311
311
310
310
309
309
309
309
308
308
308
307
307
307
306
306
306
305
305
305
305
305
304
304
303
303
303
303
303
303
302
302
301
301
301
301
300
300
300
300
300
299
299
299
299
299
298
298
297
297
296
296
296
296
296
296
295
295
295
295
295
295
294
293
292
292
292
292
291
291
290
290
290
289
289
289
289
289
288
287
287
286
286
286
286
286
285
285
285
285
284
281
281
281
281
280
280
280
279
279
278
278
278
278
278
277
277
277
276
276
276
275
275
275
275
274
274
274
273
273
273
273
273
272
272
272
272
271
271
270
270
268
268
267
266
266
265
265
264
264
264
264
263
263
263
263
262
261
261
260
260
260
259
259
259
258
258
257
257
257
257
257
256
256
256
254
254
253
253
253
252
252
251
250
250
250
248
248
248
248
248
248
247
246
245
245
244
244
244
243
243
243
243
243
240
240
240
240
238
238
238
236
236
236
236
235
235
235
235
234
234
233
233
232
232
232
231
231
231
231
231
230
230
229
229
228
228
228
228
228
228
227
227
227
225
225
225
225
224
224
223
223
223
223
223
222
222
222
222
221
221
221
220
220
220
220
219
219
219
219
218
217
217
216
216
215
215
215
215
214
213
213
212
212
212
212
211
211
211
210
210
210
209
209
209
208
208
208
206
206
205
205
204
204
203
202
202
202
201
201
200
200
199
199
198
198
197
197
196
196
196
195
194
194
194
192
192
191
191
191
190
190
190
189
189
189
189
189
189
188
188
187
187
187
187
186
185
185
184
184
183
183
183
183
182
181
181
181
180
180
180
180
179
179
179
179
178
178
178
177
177
176
176
175
174
174
173
172
172
172
171
171
171
171
170
170
170
169
169
169
168
167
167
166
166
166
166
165
165
165
165
165
164
164
164
163
162
162
161
161
161
161
161
160
160
160
159
158
158
157
157
157
157
156
156
155
155
155
154
154
153
153
153
152
152
151
150
150
